50, 7254
129, 186
387, 558
342, 90
57, 15
342, 90
456, 120
171, 45
430, 620
387, 558
57, 15
285, 75
570, 150
86, 124
86, 124
215, 310
228, 60
114, 30
513, 135
456, 120
430, 620
344, 496
258, 372
114, 30
513, 135
430, 620
285, 75
285, 75
570, 150
57, 15
344, 496
285, 75
258, 372
129, 186
258, 372
114, 30
172, 248
172, 248
228, 60
43, 62
456, 120
301, 434
387, 558
215, 310
430, 620
513, 135
228, 60
513, 135
43, 62
456, 120
513, 135
